sprc-calc
1.0
 7.650000000000000  0.000000000000000  0.000000000000000
 0.000000000000000  7.650000000000000  0.000000000000000
 0.000000000000000  0.000000000000000  7.650000000000000
Al 
4 
Direct
 0.988265139367185  0.950043738996516  0.985400716197898 Al
 0.531158588674888  0.942347971186596  0.505489515167458 Al
 0.929305496923134  0.455630493587423  0.488572378635500 Al
 0.472045604337655  0.478158988562124  0.026193992947707 Al
